NAME          
ROWS
 N  OBJ
 L  c1
COLUMNS
    MARKER    'MARKER'                 'INTORG'
    x[1]      c1        603
    x[1]      OBJ       -337
    x[2]      c1        976
    x[2]      OBJ       -287
    x[3]      c1        413
    x[3]      OBJ       -576
    x[4]      c1        407
    x[4]      OBJ       -373
    x[5]      c1        571
    x[5]      OBJ       -46
    x[6]      c1        163
    x[6]      OBJ       -846
    x[7]      c1        525
    x[7]      OBJ       -244
    x[8]      c1        929
    x[8]      OBJ       -73
    x[9]      c1        133
    x[9]      OBJ       -374
    x[10]     c1        978
    x[10]     OBJ       -2
RHS
    rhs       c1        2849
RANGES
BOUNDS
 BV bounds    x[1]
 BV bounds    x[2]
 BV bounds    x[3]
 BV bounds    x[4]
 BV bounds    x[5]
 BV bounds    x[6]
 BV bounds    x[7]
 BV bounds    x[8]
 BV bounds    x[9]
 BV bounds    x[10]
ENDATA
